
(set-logic ALL) 

(declare-datatype MyList ((Nil) (Cons (head Real) (tail MyList)) )) 
(declare-fun l0 () MyList) 
(declare-fun l1 () MyList) 
(declare-fun l2 () MyList) 
(declare-fun l3 () MyList) 
(declare-fun i0 () Real) 
(declare-fun i1 () Real) 
(assert (is-Cons Nil) )
(assert (is-Nil l2) )
(assert (= l0 Nil) )
(assert (or (is-Cons Nil) (= l2 l2) (= l2 Nil) (= l0 l3)) )
(assert (or (is-Nil l3) (is-Nil Nil) (is-Nil Nil)) )
(assert (or (= l2 l3) (is-Cons l0) (is-Nil Nil)) )
(assert (not (= l3 l0)) )
(assert (and (= l2 Nil) (is-Cons Nil) (is-Cons Nil)) )
(check-sat)
